NAME          DCAP_3_4_2_200_SS106
ROWS
 N  OBJ
 L  CON1
 L  CON2
 L  CON3
 L  CON4
 L  CON5
 L  CON6
 L  CON7
 L  CON8
 L  CON9
 L  CON10
 L  CON11
 L  CON12
 E  CON13
 E  CON14
 E  CON15
 E  CON16
 E  CON17
 E  CON18
 E  CON19
 E  CON20
COLUMNS
    x[1,1]    OBJ       6.180167      CON1      1.000000    
    x[1,1]    CON7      -1.000000     CON8      -1.000000   
    x[1,2]    OBJ       5.039546      CON2      1.000000    
    x[1,2]    CON8      -1.000000   
    x[2,1]    OBJ       6.732585      CON3      1.000000    
    x[2,1]    CON9      -1.000000     CON10     -1.000000   
    x[2,2]    OBJ       7.443064      CON4      1.000000    
    x[2,2]    CON10     -1.000000   
    x[3,1]    OBJ       6.563535      CON5      1.000000    
    x[3,1]    CON11     -1.000000     CON12     -1.000000   
    x[3,2]    OBJ       6.054841      CON6      1.000000    
    x[3,2]    CON12     -1.000000   
    MARKER    'MARKER'                'INTORG'
    u[1,1]    OBJ       48.076654     CON1      -1.000000   
    u[1,2]    OBJ       49.466655     CON2      -1.000000   
    u[2,1]    OBJ       49.996186     CON3      -1.000000   
    u[2,2]    OBJ       32.230043     CON4      -1.000000   
    u[3,1]    OBJ       20.066487     CON5      -1.000000   
    u[3,2]    OBJ       27.484319     CON6      -1.000000   
    y[1,1,1]  OBJ       7.700290      CON7      1.280098    
    y[1,1,1]  CON13     1.000000    
    y[1,1,2]  OBJ       8.144551      CON8      1.315961    
    y[1,1,2]  CON14     1.000000    
    y[1,2,1]  OBJ       8.393848      CON7      1.350443    
    y[1,2,1]  CON15     1.000000    
    y[1,2,2]  OBJ       6.393695      CON8      0.500295    
    y[1,2,2]  CON16     1.000000    
    y[1,3,1]  OBJ       8.673844      CON7      1.168300    
    y[1,3,1]  CON17     1.000000    
    y[1,3,2]  OBJ       8.029148      CON8      0.558576    
    y[1,3,2]  CON18     1.000000    
    y[1,4,1]  OBJ       7.011271      CON7      1.034469    
    y[1,4,1]  CON19     1.000000    
    y[1,4,2]  OBJ       7.257801      CON8      1.012987    
    y[1,4,2]  CON20     1.000000    
    y[2,1,1]  OBJ       6.488485      CON9      1.280098    
    y[2,1,1]  CON13     1.000000    
    y[2,1,2]  OBJ       6.431022      CON10     1.315961    
    y[2,1,2]  CON14     1.000000    
    y[2,2,1]  OBJ       5.290814      CON9      1.350443    
    y[2,2,1]  CON15     1.000000    
    y[2,2,2]  OBJ       8.397623      CON10     0.500295    
    y[2,2,2]  CON16     1.000000    
    y[2,3,1]  OBJ       9.508251      CON9      1.168300    
    y[2,3,1]  CON17     1.000000    
    y[2,3,2]  OBJ       7.374824      CON10     0.558576    
    y[2,3,2]  CON18     1.000000    
    y[2,4,1]  OBJ       6.250408      CON9      1.034469    
    y[2,4,1]  CON19     1.000000    
    y[2,4,2]  OBJ       5.771512      CON10     1.012987    
    y[2,4,2]  CON20     1.000000    
    y[3,1,1]  OBJ       8.503134      CON11     1.280098    
    y[3,1,1]  CON13     1.000000    
    y[3,1,2]  OBJ       5.166463      CON12     1.315961    
    y[3,1,2]  CON14     1.000000    
    y[3,2,1]  OBJ       6.788893      CON11     1.350443    
    y[3,2,1]  CON15     1.000000    
    y[3,2,2]  OBJ       7.439079      CON12     0.500295    
    y[3,2,2]  CON16     1.000000    
    y[3,3,1]  OBJ       8.294404      CON11     1.168300    
    y[3,3,1]  CON17     1.000000    
    y[3,3,2]  OBJ       5.932437      CON12     0.558576    
    y[3,3,2]  CON18     1.000000    
    y[3,4,1]  OBJ       6.058205      CON11     1.034469    
    y[3,4,1]  CON19     1.000000    
    y[3,4,2]  OBJ       8.139244      CON12     1.012987    
    y[3,4,2]  CON20     1.000000    
    z[1,1]    OBJ       561.968835    CON13     1.000000    
    z[1,2]    OBJ       542.559256    CON14     1.000000    
    z[2,1]    OBJ       828.528059    CON15     1.000000    
    z[2,2]    OBJ       893.596956    CON16     1.000000    
    z[3,1]    OBJ       543.808665    CON17     1.000000    
    z[3,2]    OBJ       892.428181    CON18     1.000000    
    z[4,1]    OBJ       977.972152    CON19     1.000000    
    z[4,2]    OBJ       979.384944    CON20     1.000000    
    MARKER    'MARKER'                 'INTEND'
RHS
    RHS       CON1      -0.000000     CON2      -0.000000   
    RHS       CON3      -0.000000     CON4      -0.000000   
    RHS       CON5      -0.000000     CON6      -0.000000   
    RHS       CON7      -0.000000     CON8      -0.000000   
    RHS       CON9      -0.000000     CON10     -0.000000   
    RHS       CON11     -0.000000     CON12     -0.000000   
    RHS       CON13     1.000000      CON14     1.000000    
    RHS       CON15     1.000000      CON16     1.000000    
    RHS       CON17     1.000000      CON18     1.000000    
    RHS       CON19     1.000000      CON20     1.000000    
BOUNDS
 BV BOUND     u[1,1]  
 BV BOUND     u[1,2]  
 BV BOUND     u[2,1]  
 BV BOUND     u[2,2]  
 BV BOUND     u[3,1]  
 BV BOUND     u[3,2]  
 BV BOUND     y[1,1,1]
 BV BOUND     y[1,1,2]
 BV BOUND     y[1,2,1]
 BV BOUND     y[1,2,2]
 BV BOUND     y[1,3,1]
 BV BOUND     y[1,3,2]
 BV BOUND     y[1,4,1]
 BV BOUND     y[1,4,2]
 BV BOUND     y[2,1,1]
 BV BOUND     y[2,1,2]
 BV BOUND     y[2,2,1]
 BV BOUND     y[2,2,2]
 BV BOUND     y[2,3,1]
 BV BOUND     y[2,3,2]
 BV BOUND     y[2,4,1]
 BV BOUND     y[2,4,2]
 BV BOUND     y[3,1,1]
 BV BOUND     y[3,1,2]
 BV BOUND     y[3,2,1]
 BV BOUND     y[3,2,2]
 BV BOUND     y[3,3,1]
 BV BOUND     y[3,3,2]
 BV BOUND     y[3,4,1]
 BV BOUND     y[3,4,2]
 BV BOUND     z[1,1]  
 BV BOUND     z[1,2]  
 BV BOUND     z[2,1]  
 BV BOUND     z[2,2]  
 BV BOUND     z[3,1]  
 BV BOUND     z[3,2]  
 BV BOUND     z[4,1]  
 BV BOUND     z[4,2]  
ENDATA
